102     1       
5       
0       0       9       2       3       4       5       6       7       8       9       12      
8       5       6       11      14      15      24      25      27      
6       5       6       10      14      17      20      25      27      
1       5       8       13      14      17      19      20      21      25      27      
3       5       6       10      13      17      20      22      25      
8       5       8       16      18      19      21      24      25      27      30      
2       5       5       10      13      17      21      25      
4       5       7       13      16      19      21      24      27      30      
6       5       6       18      21      23      24      25      30      
2       5       4       16      23      24      30      
4       5       4       16      17      20      30      
9       5       3       14      25      33      
3       5       7       23      28      31      34      35      36      48      
6       5       6       22      29      32      34      41      42      
10      5       5       21      30      31      36      43      
8       5       9       26      28      29      31      32      35      36      41      48      
4       5       8       26      29      31      33      34      35      41      43      
10      5       3       22      26      33      
2       5       11      31      33      34      35      36      37      39      40      41      42      46      
10      5       8       28      31      34      40      41      42      44      48      
8       5       9       32      34      37      39      40      41      42      46      48      
9       5       7       28      31      35      36      40      48      52      
7       5       7       29      39      40      41      42      43      46      
8       5       7       32      33      40      42      43      46      54      
9       5       6       37      39      40      41      44      46      
10      5       6       37      38      39      40      46      52      
2       5       5       36      38      39      46      52      
3       5       5       37      38      39      45      46      
7       5       6       37      44      52      54      55      60      
10      5       4       34      42      46      49      
10      5       6       38      45      47      49      54      59      
6       5       5       38      44      47      49      59      
2       5       5       38      47      52      59      63      
5       5       4       38      45      47      59      
7       5       4       38      49      59      63      
1       5       7       44      49      50      55      56      57      59      
10      5       7       47      49      51      53      57      59      63      
9       5       8       50      51      53      55      57      60      62      64      
5       5       7       47      51      54      55      60      61      63      
10      5       6       45      50      55      59      60      62      
5       5       6       50      51      52      61      63      64      
4       5       6       50      53      56      57      59      62      
2       5       4       50      51      57      61      
6       5       2       45      62      
4       5       9       58      61      63      64      65      66      67      72      73      
6       5       8       58      61      64      65      66      67      72      73      
2       5       3       50      62      65      
9       5       7       58      63      65      66      67      71      72      
6       5       8       62      65      66      68      69      70      71      72      
5       5       7       58      66      67      68      71      72      73      
8       5       5       56      65      69      72      73      
3       5       6       58      62      66      68      71      72      
6       5       7       61      65      69      70      72      73      74      
5       5       7       62      69      70      71      72      74      79      
9       5       8       68      70      72      73      74      75      80      89      
1       5       5       67      68      71      74      80      
2       5       6       68      71      73      74      80      89      
8       5       9       69      74      75      76      77      79      80      82      83      
5       5       5       68      70      72      73      80      
1       5       4       65      70      72      74      
3       5       7       71      76      77      78      79      80      82      
1       5       6       73      76      78      80      89      101     
4       5       5       68      75      80      82      89      
6       5       5       68      77      80      83      89      
8       5       8       75      76      77      78      79      82      83      88      
8       5       6       74      76      77      82      83      101     
2       5       4       70      78      82      89      
4       5       6       76      78      79      81      100     101     
8       5       11      81      84      86      87      88      89      95      98      99      100     101     
1       5       6       77      87      88      95      99      101     
6       5       6       75      83      85      88      99      100     
2       5       5       76      82      83      88      101     
9       5       5       77      82      83      97      99      
7       5       5       78      85      87      88      100     
7       5       9       86      87      93      94      95      96      97      98      101     
10      5       6       84      94      95      96      97      98      
3       5       4       81      84      86      100     
2       5       7       86      93      94      95      96      98      99      
4       5       6       87      93      94      95      97      98      
9       5       4       87      88      93      95      
6       5       3       85      94      96      
9       5       3       86      87      95      
6       2       5       90      91      92      93      96      
7       3       1       85      
1       5       4       90      91      92      93      
1       5       3       90      91      92      
9       5       2       90      91      
10      5       2       92      97      
3       5       1       94      
1       5       1       102     
3       5       1       102     
9       5       1       102     
1       5       1       102     
10      5       1       102     
9       5       1       102     
3       5       1       102     
5       5       1       102     
3       5       1       102     
3       5       1       102     
5       5       1       102     
10      5       1       102     
0       0       0       
